* Problem:    gt2-pow2-prescaled
* Class:      LP
* Rows:       29
* Columns:    217
* Non-zeros:  405
* Format:     Free MPS
*
NAME gt2-pow2-prescaled
ROWS
 N R0000000
 E R0000001
 E R0000002
 E R0000003
 E R0000004
 E R0000005
 E R0000006
 E R0000007
 E R0000008
 E R0000009
 E R0000010
 E R0000011
 E R0000012
 E R0000013
 E R0000014
 E R0000015
 E R0000016
 E R0000017
 E R0000018
 E R0000019
 E R0000020
 E R0000021
 E R0000022
 E R0000023
 E R0000024
 E R0000025
 E R0000026
 E R0000027
 E R0000028
 E R0000029
COLUMNS
 c0 R0000000 57520 R0000013 16
 c0 R0000001 -800
 c1 R0000000 57520 R0000013 16
 c1 R0000002 -800
 c2 R0000000 29328 R0000013 16
 c2 R0000003 -800
 c3 R0000000 57520 R0000013 16
 c3 R0000004 -800
 c4 R0000000 57520 R0000013 16
 c4 R0000007 -800
 c5 R0000000 57520 R0000013 16
 c5 R0000008 -800
 c6 R0000000 29328 R0000013 16
 c6 R0000009 -800
 c7 R0000000 57520 R0000013 16
 c7 R0000010 -800
 c8 R0000000 198400 R0000014 64
 c8 R0000001 -2880
 c9 R0000000 99200 R0000014 32
 c9 R0000002 -1440
 c10 R0000000 40224 R0000014 32
 c10 R0000003 -1440
 c11 R0000000 99200 R0000014 32
 c11 R0000004 -1440
 c12 R0000000 86720 R0000014 64
 c12 R0000005 -1792
 c13 R0000000 249504 R0000014 32
 c13 R0000006 -896
 c14 R0000000 99200 R0000014 32
 c14 R0000007 -1440
 c15 R0000000 99200 R0000014 32
 c15 R0000008 -1440
 c16 R0000000 40224 R0000014 32
 c16 R0000009 -1440
 c17 R0000000 99200 R0000014 32
 c17 R0000010 -1440
 c18 R0000000 43360 R0000014 32
 c18 R0000011 -896
 c19 R0000000 249504 R0000014 32
 c19 R0000012 -896
 c20 R0000000 85920 R0000015 32
 c20 R0000001 -1280
 c21 R0000000 85920 R0000015 32
 c21 R0000002 -1280
 c22 R0000000 40224 R0000015 32
 c22 R0000003 -1280
 c23 R0000000 85920 R0000015 32
 c23 R0000004 -1280
 c24 R0000000 37632 R0000015 32
 c24 R0000005 -1440
 c25 R0000000 99424 R0000015 16
 c25 R0000006 -720
 c26 R0000000 85920 R0000015 32
 c26 R0000007 -1280
 c27 R0000000 85920 R0000015 32
 c27 R0000008 -1280
 c28 R0000000 40224 R0000015 32
 c28 R0000009 -1280
 c29 R0000000 85920 R0000015 32
 c29 R0000010 -1280
 c30 R0000000 18816 R0000015 16
 c30 R0000011 -720
 c31 R0000000 99424 R0000015 16
 c31 R0000012 -720
 c32 R0000000 23520 R0000016 8
 c32 R0000001 -240
 c33 R0000000 94080 R0000016 32
 c33 R0000002 -960
 c34 R0000000 63360 R0000016 32
 c34 R0000003 -960
 c35 R0000000 94080 R0000016 32
 c35 R0000004 -960
 c36 R0000000 31680 R0000016 16
 c36 R0000005 -264
 c37 R0000000 114320 R0000016 16
 c37 R0000006 -264
 c38 R0000000 94080 R0000016 32
 c38 R0000007 -960
 c39 R0000000 94080 R0000016 32
 c39 R0000008 -960
 c40 R0000000 63360 R0000016 32
 c40 R0000009 -960
 c41 R0000000 94080 R0000016 32
 c41 R0000010 -960
 c42 R0000000 31680 R0000016 16
 c42 R0000011 -264
 c43 R0000000 114320 R0000016 16
 c43 R0000012 -264
 c44 R0000000 24800 R0000017 8
 c44 R0000001 -256
 c45 R0000000 99200 R0000017 32
 c45 R0000002 -1024
 c46 R0000000 58112 R0000017 32
 c46 R0000003 -1024
 c47 R0000000 99200 R0000017 32
 c47 R0000004 -1024
 c48 R0000000 30816 R0000017 16
 c48 R0000005 -720
 c49 R0000000 112176 R0000017 16
 c49 R0000006 -720
 c50 R0000000 99200 R0000017 32
 c50 R0000007 -1024
 c51 R0000000 99200 R0000017 32
 c51 R0000008 -1024
 c52 R0000000 58112 R0000017 32
 c52 R0000009 -1024
 c53 R0000000 99200 R0000017 32
 c53 R0000010 -1024
 c54 R0000000 61632 R0000017 32
 c54 R0000011 -1440
 c55 R0000000 112176 R0000017 16
 c55 R0000012 -720
 c56 R0000000 49600 R0000018 16
 c56 R0000001 -800
 c57 R0000000 49600 R0000018 16
 c57 R0000002 -800
 c58 R0000000 29056 R0000018 16
 c58 R0000003 -800
 c59 R0000000 793600 R0000018 256
 c59 R0000004 -13312
 c60 R0000000 63456 R0000018 32
 c60 R0000005 -1664
 c61 R0000000 249504 R0000018 32
 c61 R0000006 -1664
 c62 R0000000 49600 R0000018 16
 c62 R0000007 -800
 c63 R0000000 49600 R0000018 16
 c63 R0000008 -800
 c64 R0000000 29056 R0000018 16
 c64 R0000009 -800
 c65 R0000000 198400 R0000018 64
 c65 R0000010 -3328
 c66 R0000000 63456 R0000018 32
 c66 R0000011 -1664
 c67 R0000000 249504 R0000018 32
 c67 R0000012 -1664
 c68 R0000000 7704 R0000019 4
 c68 R0000005 -180
 c69 R0000000 112176 R0000019 16
 c69 R0000006 -720
 c70 R0000000 30816 R0000019 16
 c70 R0000011 -720
 c71 R0000000 112176 R0000019 16
 c71 R0000012 -720
 c72 R0000000 99200 R0000020 32
 c72 R0000001 -1440
 c73 R0000000 99200 R0000020 32
 c73 R0000002 -1440
 c74 R0000000 40224 R0000020 32
 c74 R0000003 -1440
 c75 R0000000 396800 R0000020 128
 c75 R0000004 -5632
 c76 R0000000 99200 R0000020 32
 c76 R0000007 -1440
 c77 R0000000 99200 R0000020 32
 c77 R0000008 -1440
 c78 R0000000 40224 R0000020 32
 c78 R0000009 -1440
 c79 R0000000 1587200 R0000020 512
 c79 R0000010 -22528
 c80 R0000000 2448 R0000021 1
 c80 R0000001 -2534
 c81 R0000000 2448 R0000021 1
 c81 R0000002 -2534
 c82 R0000000 1652 R0000021 1
 c82 R0000003 -2534
 c83 R0000000 2448 R0000021 1
 c83 R0000004 -2534
 c84 R0000000 1652 R0000021 1
 c84 R0000005 -2519
 c85 R0000000 5954 R0000021 1
 c85 R0000006 -2519
 c86 R0000000 2448 R0000021 1
 c86 R0000007 -2534
 c87 R0000000 2448 R0000021 1
 c87 R0000008 -2534
 c88 R0000000 1652 R0000021 1
 c88 R0000009 -2534
 c89 R0000000 2448 R0000021 1
 c89 R0000010 -2534
 c90 R0000000 1652 R0000021 1
 c90 R0000011 -2519
 c91 R0000000 5954 R0000021 1
 c91 R0000012 -2519
 c92 R0000022 256 R0000001 -5632
 c93 R0000023 16 R0000001 -896
 c94 R0000024 8 R0000001 -240
 c95 R0000025 64 R0000001 -1920
 c96 R0000026 8 R0000001 -184
 c97 R0000027 8 R0000001 -336
 c98 R0000028 16 R0000001 -896
 c99 R0000029 8 R0000001 -224
 c100 R0000022 64 R0000002 -1408
 c101 R0000023 16 R0000002 -896
 c102 R0000024 32 R0000002 -960
 c103 R0000025 32 R0000002 -960
 c104 R0000026 64 R0000002 -1472
 c105 R0000027 32 R0000002 -1344
 c106 R0000028 16 R0000002 -896
 c107 R0000029 32 R0000002 -896
 c108 R0000022 64 R0000003 -1408
 c109 R0000023 16 R0000003 -896
 c110 R0000024 32 R0000003 -960
 c111 R0000025 32 R0000003 -960
 c112 R0000026 64 R0000003 -1472
 c113 R0000027 32 R0000003 -1344
 c114 R0000028 16 R0000003 -896
 c115 R0000029 32 R0000003 -896
 c116 R0000022 64 R0000004 -1408
 c117 R0000023 16 R0000004 -896
 c118 R0000024 32 R0000004 -960
 c119 R0000025 32 R0000004 -960
 c120 R0000026 64 R0000004 -1472
 c121 R0000027 32 R0000004 -1344
 c122 R0000028 16 R0000004 -896
 c123 R0000029 32 R0000004 -896
 c124 R0000022 512 R0000005 -12800
 c125 R0000023 32 R0000005 -1088
 c126 R0000024 16 R0000005 -400
 c127 R0000025 128 R0000005 -2432
 c128 R0000026 4 R0000005 -224
 c129 R0000027 8 R0000005 -272
 c130 R0000028 32 R0000005 -1088
 c131 R0000029 16 R0000005 -400
 c132 R0000022 512 R0000006 -12800
 c133 R0000023 32 R0000006 -1088
 c134 R0000024 16 R0000006 -400
 c135 R0000025 128 R0000006 -2432
 c136 R0000026 4 R0000006 -224
 c137 R0000027 8 R0000006 -272
 c138 R0000028 32 R0000006 -1088
 c139 R0000029 16 R0000006 -400
 c140 R0000022 64 R0000007 -1408
 c141 R0000023 16 R0000007 -896
 c142 R0000024 32 R0000007 -960
 c143 R0000025 32 R0000007 -960
 c144 R0000026 64 R0000007 -1472
 c145 R0000027 32 R0000007 -1344
 c146 R0000028 16 R0000007 -896
 c147 R0000029 32 R0000007 -896
 c148 R0000022 64 R0000008 -1408
 c149 R0000023 16 R0000008 -896
 c150 R0000024 32 R0000008 -960
 c151 R0000025 32 R0000008 -960
 c152 R0000026 64 R0000008 -1472
 c153 R0000027 32 R0000008 -1344
 c154 R0000028 16 R0000008 -896
 c155 R0000029 32 R0000008 -896
 c156 R0000022 64 R0000009 -1408
 c157 R0000023 16 R0000009 -896
 c158 R0000024 32 R0000009 -960
 c159 R0000025 32 R0000009 -960
 c160 R0000026 64 R0000009 -1472
 c161 R0000027 32 R0000009 -1344
 c162 R0000028 16 R0000009 -896
 c163 R0000029 32 R0000009 -896
 c164 R0000022 64 R0000010 -1408
 c165 R0000023 16 R0000010 -896
 c166 R0000024 32 R0000010 -960
 c167 R0000025 32 R0000010 -960
 c168 R0000026 64 R0000010 -1472
 c169 R0000027 32 R0000010 -1344
 c170 R0000028 16 R0000010 -896
 c171 R0000029 32 R0000010 -896
 c172 R0000022 512 R0000011 -12800
 c173 R0000023 32 R0000011 -1088
 c174 R0000024 16 R0000011 -400
 c175 R0000025 128 R0000011 -2432
 c176 R0000026 8 R0000011 -448
 c177 R0000027 16 R0000011 -544
 c178 R0000028 32 R0000011 -1088
 c179 R0000029 32 R0000011 -800
 c180 R0000022 512 R0000012 -12800
 c181 R0000023 32 R0000012 -1088
 c182 R0000024 16 R0000012 -400
 c183 R0000025 128 R0000012 -2432
 c184 R0000026 4 R0000012 -224
 c185 R0000027 8 R0000012 -272
 c186 R0000028 32 R0000012 -1088
 c187 R0000029 16 R0000012 -400
 c188 R0000001 128
 c189 R0000002 1024
 c190 R0000003 1024
 c191 R0000004 1024
 c192 R0000005 128
 c193 R0000006 256
 c194 R0000007 1024
 c195 R0000008 1024
 c196 R0000009 1024
 c197 R0000010 1024
 c198 R0000011 128
 c199 R0000012 128
 c200 R0000013 16
 c201 R0000014 4
 c202 R0000015 2
 c203 R0000016 4
 c204 R0000017 4
 c205 R0000018 16
 c206 R0000019 2
 c207 R0000020 32
 c208 R0000021 1
 c209 R0000022 32
 c210 R0000023 8
 c211 R0000024 16
 c212 R0000025 16
 c213 R0000026 4
 c214 R0000027 2
 c215 R0000028 2
 c216 R0000029 4
RHS
 RHS1 R0000001 -200 R0000002 -80
 RHS1 R0000003 -300 R0000004 -250
 RHS1 R0000005 -61 R0000006 -6064
 RHS1 R0000007 -94 R0000008 -67
 RHS1 R0000009 -450 R0000010 -231
 RHS1 R0000011 -76 R0000013 9
 RHS1 R0000014 15 R0000015 14
 RHS1 R0000016 1 R0000017 6
 RHS1 R0000018 8 R0000019 5
 RHS1 R0000020 12 R0000021 5
 RHS1 R0000022 6 R0000023 4
 RHS1 R0000024 9 R0000025 5
 RHS1 R0000026 4 R0000027 2
 RHS1 R0000028 2 R0000029 1
BOUNDS
 UP BND1 c0 0.5625
 UP BND1 c1 0.5625
 UP BND1 c2 0.5625
 UP BND1 c3 0.5625
 UP BND1 c4 0.5625
 UP BND1 c5 0.5625
 UP BND1 c6 0.5625
 UP BND1 c7 0.5625
 UP BND1 c8 0.234375
 UP BND1 c9 0.46875
 UP BND1 c10 0.46875
 UP BND1 c11 0.46875
 UP BND1 c12 0.234375
 UP BND1 c13 0.46875
 UP BND1 c14 0.46875
 UP BND1 c15 0.46875
 UP BND1 c16 0.46875
 UP BND1 c17 0.46875
 UP BND1 c18 0.46875
 UP BND1 c19 0.46875
 UP BND1 c20 0.4375
 UP BND1 c21 0.4375
 UP BND1 c22 0.4375
 UP BND1 c23 0.4375
 UP BND1 c24 0.4375
 UP BND1 c25 0.875
 UP BND1 c26 0.4375
 UP BND1 c27 0.4375
 UP BND1 c28 0.4375
 UP BND1 c29 0.4375
 UP BND1 c30 0.875
 UP BND1 c31 0.875
 UP BND1 c32 0.125
 UP BND1 c33 0.03125
 UP BND1 c34 0.03125
 UP BND1 c35 0.03125
 UP BND1 c36 0.0625
 UP BND1 c37 0.0625
 UP BND1 c38 0.03125
 UP BND1 c39 0.03125
 UP BND1 c40 0.03125
 UP BND1 c41 0.03125
 UP BND1 c42 0.0625
 UP BND1 c43 0.0625
 UP BND1 c44 0.75
 UP BND1 c45 0.1875
 UP BND1 c46 0.1875
 UP BND1 c47 0.1875
 UP BND1 c48 0.375
 UP BND1 c49 0.375
 UP BND1 c50 0.1875
 UP BND1 c51 0.1875
 UP BND1 c52 0.1875
 UP BND1 c53 0.1875
 UP BND1 c54 0.1875
 UP BND1 c55 0.375
 UP BND1 c56 0.5
 UP BND1 c57 0.5
 UP BND1 c58 0.5
 UP BND1 c59 0.03125
 UP BND1 c60 0.25
 UP BND1 c61 0.25
 UP BND1 c62 0.5
 UP BND1 c63 0.5
 UP BND1 c64 0.5
 UP BND1 c65 0.125
 UP BND1 c66 0.25
 UP BND1 c67 0.25
 UP BND1 c68 1.25
 UP BND1 c69 0.3125
 UP BND1 c70 0.3125
 UP BND1 c71 0.3125
 UP BND1 c72 0.375
 UP BND1 c73 0.375
 UP BND1 c74 0.375
 UP BND1 c75 0.09375
 UP BND1 c76 0.375
 UP BND1 c77 0.375
 UP BND1 c78 0.375
 UP BND1 c79 0.0234375
 UP BND1 c80 5
 UP BND1 c81 5
 UP BND1 c82 5
 UP BND1 c83 5
 UP BND1 c84 5
 UP BND1 c85 5
 UP BND1 c86 5
 UP BND1 c87 5
 UP BND1 c88 5
 UP BND1 c89 5
 UP BND1 c90 5
 UP BND1 c91 5
 UP BND1 c92 0.0234375
 UP BND1 c93 0.25
 UP BND1 c94 1.125
 UP BND1 c95 0.078125
 UP BND1 c96 0.5
 UP BND1 c97 0.25
 UP BND1 c98 0.125
 UP BND1 c99 0.125
 UP BND1 c100 0.09375
 UP BND1 c101 0.25
 UP BND1 c102 0.28125
 UP BND1 c103 0.15625
 UP BND1 c104 0.0625
 UP BND1 c105 0.0625
 UP BND1 c106 0.125
 UP BND1 c107 0.03125
 UP BND1 c108 0.09375
 UP BND1 c109 0.25
 UP BND1 c110 0.28125
 UP BND1 c111 0.15625
 UP BND1 c112 0.0625
 UP BND1 c113 0.0625
 UP BND1 c114 0.125
 UP BND1 c115 0.03125
 UP BND1 c116 0.09375
 UP BND1 c117 0.25
 UP BND1 c118 0.28125
 UP BND1 c119 0.15625
 UP BND1 c120 0.0625
 UP BND1 c121 0.0625
 UP BND1 c122 0.125
 UP BND1 c123 0.03125
 UP BND1 c124 0.01171875
 UP BND1 c125 0.125
 UP BND1 c126 0.5625
 UP BND1 c127 0.0390625
 UP BND1 c128 1
 UP BND1 c129 0.25
 UP BND1 c130 0.0625
 UP BND1 c131 0.0625
 UP BND1 c132 0.01171875
 UP BND1 c133 0.125
 UP BND1 c134 0.5625
 UP BND1 c135 0.0390625
 UP BND1 c136 1
 UP BND1 c137 0.25
 UP BND1 c138 0.0625
 UP BND1 c139 0.0625
 UP BND1 c140 0.09375
 UP BND1 c141 0.25
 UP BND1 c142 0.28125
 UP BND1 c143 0.15625
 UP BND1 c144 0.0625
 UP BND1 c145 0.0625
 UP BND1 c146 0.125
 UP BND1 c147 0.03125
 UP BND1 c148 0.09375
 UP BND1 c149 0.25
 UP BND1 c150 0.28125
 UP BND1 c151 0.15625
 UP BND1 c152 0.0625
 UP BND1 c153 0.0625
 UP BND1 c154 0.125
 UP BND1 c155 0.03125
 UP BND1 c156 0.09375
 UP BND1 c157 0.25
 UP BND1 c158 0.28125
 UP BND1 c159 0.15625
 UP BND1 c160 0.0625
 UP BND1 c161 0.0625
 UP BND1 c162 0.125
 UP BND1 c163 0.03125
 UP BND1 c164 0.09375
 UP BND1 c165 0.25
 UP BND1 c166 0.28125
 UP BND1 c167 0.15625
 UP BND1 c168 0.0625
 UP BND1 c169 0.0625
 UP BND1 c170 0.125
 UP BND1 c171 0.03125
 UP BND1 c172 0.01171875
 UP BND1 c173 0.125
 UP BND1 c174 0.5625
 UP BND1 c175 0.0390625
 UP BND1 c176 0.5
 UP BND1 c177 0.125
 UP BND1 c178 0.0625
 UP BND1 c179 0.03125
 UP BND1 c180 0.01171875
 UP BND1 c181 0.125
 UP BND1 c182 0.5625
 UP BND1 c183 0.0390625
 UP BND1 c184 1
 UP BND1 c185 0.25
 UP BND1 c186 0.0625
 UP BND1 c187 0.0625
ENDATA
